% seed = 0

mint = 25;
% maxt = 142;

nActs = 62;
dur = [0,1,3,1,3,3,4,3,1,1,1,2,2,4,3,3,3,3,3,2,4,2,2,2,2,2,5,2,2,2,2,4,1,4,1,2,3,2,1,2,4,1,3,2,1,3,3,4,1,2,2,2,2,4,1,2,2,2,5,2,1,0];

nSkills = 12;
sreq = [| 0,0,0,0,0,0,0,0,0,0,0,0,
	| 0,2,1,0,1,0,0,1,1,1,0,1,
	| 0,2,0,0,0,0,0,0,0,0,0,0,
	| 1,0,1,0,0,1,1,0,1,1,0,2,
	| 1,1,2,0,0,0,0,0,1,2,0,1,
	| 1,0,1,0,1,1,1,1,0,1,1,0,
	| 0,0,1,0,0,0,0,0,0,0,0,1,
	| 1,1,1,2,1,0,1,0,1,0,0,0,
	| 0,0,0,1,1,0,1,0,2,0,1,0,
	| 1,1,0,1,1,1,0,1,1,0,1,1,
	| 1,1,0,1,2,0,0,0,2,1,1,0,
	| 0,0,2,0,0,1,0,0,0,0,3,0,
	| 0,0,0,0,0,1,0,0,0,0,0,2,
	| 0,0,1,0,0,1,0,0,0,0,1,0,
	| 1,0,1,0,1,0,1,0,0,3,1,1,
	| 0,1,0,0,0,0,0,0,0,1,3,0,
	| 1,0,0,0,0,0,0,0,0,1,0,0,
	| 0,0,0,1,0,0,0,0,1,0,0,0,
	| 0,0,1,0,1,0,0,0,0,0,0,0,
	| 1,0,0,0,0,0,0,0,1,0,0,0,
	| 0,0,0,0,0,1,1,0,0,0,0,1,
	| 1,0,0,1,0,0,1,0,0,1,2,0,
	| 3,1,1,1,0,1,0,0,0,1,1,0,
	| 0,0,0,0,0,0,2,0,0,1,0,0,
	| 0,0,0,0,1,0,0,1,0,0,1,0,
	| 0,1,0,1,0,3,2,1,3,0,0,0,
	| 1,1,1,0,1,0,0,1,1,1,1,1,
	| 2,1,0,0,2,1,2,0,1,0,1,1,
	| 1,0,0,1,0,0,1,1,1,1,2,0,
	| 0,0,1,0,3,1,1,2,0,2,0,1,
	| 0,1,1,1,1,2,0,1,0,2,1,1,
	| 2,0,0,0,2,0,0,1,2,2,0,0,
	| 2,0,1,1,0,1,0,0,2,0,1,1,
	| 0,0,0,1,0,0,1,0,1,1,0,1,
	| 0,0,0,1,1,0,0,0,1,0,0,0,
	| 3,0,0,1,1,1,1,1,2,1,0,0,
	| 1,0,0,1,0,0,0,0,0,0,0,0,
	| 0,0,0,0,0,0,0,1,1,0,0,1,
	| 1,0,0,0,0,0,0,0,1,0,0,0,
	| 2,1,1,1,0,0,1,1,0,1,0,1,
	| 0,2,0,0,0,0,0,0,0,0,0,0,
	| 1,0,1,1,0,0,0,0,0,1,1,0,
	| 1,0,0,0,0,0,2,0,1,1,0,0,
	| 1,0,0,0,0,0,0,0,0,1,0,1,
	| 0,1,1,0,0,0,1,0,0,0,0,0,
	| 1,0,0,1,0,1,0,0,1,0,0,1,
	| 1,0,0,0,0,2,1,0,2,1,0,1,
	| 0,0,0,0,1,0,0,0,0,0,1,0,
	| 0,1,0,1,0,1,0,0,3,0,2,1,
	| 0,0,0,1,1,0,1,0,3,3,1,1,
	| 1,1,1,0,1,0,1,0,0,1,2,0,
	| 2,0,2,1,0,0,0,0,0,0,0,0,
	| 0,0,0,0,0,0,1,1,1,0,0,0,
	| 1,0,0,0,0,1,0,1,0,1,1,0,
	| 0,0,1,0,1,2,1,0,1,0,0,0,
	| 1,1,0,0,0,0,0,0,0,0,0,0,
	| 1,2,0,0,1,1,1,1,2,1,0,1,
	| 1,0,0,0,0,1,2,1,0,1,0,0,
	| 2,1,0,0,0,0,0,0,3,0,0,3,
	| 1,0,1,0,0,1,0,0,0,0,0,0,
	| 1,0,1,0,0,0,0,1,0,0,0,0,
	| 0,0,0,0,0,0,0,0,0,0,0,0, |];

% SumOfsreq = 354;

nResources = 15;
mastery = [| false,false,true,true,false,false,false,true,true,false,true,true,
	| false,false,true,false,true,true,true,false,true,false,true,false,
	| true,false,true,true,true,false,false,false,true,true,false,false,
	| true,false,false,false,true,false,true,false,true,true,false,true,
	| true,true,true,false,false,false,false,false,true,false,true,true,
	| true,true,false,false,true,true,true,true,true,false,true,true,
	| true,false,true,false,true,true,true,false,true,true,true,true,
	| false,true,false,true,true,true,true,true,true,true,false,true,
	| true,true,true,false,false,true,true,false,true,true,true,true,
	| true,false,true,true,true,true,true,true,true,true,false,false,
	| true,true,false,true,false,true,true,true,true,true,true,false,
	| true,true,true,true,false,true,false,true,true,true,true,false,
	| false,true,true,true,true,true,true,false,true,false,true,true,
	| true,true,true,true,false,true,true,true,false,true,true,false,
	| true,true,true,true,false,true,true,false,true,true,false,true, |];

nPrecs = 93;
pred = [1,1,1,2,2,2,3,3,3,4,5,5,5,6,7,7,7,8,8,8,9,10,10,11,11,11,12,12,13,13,14,14,14,15,15,16,17,18,18,18,19,19,20,21,22,23,24,24,25,25,26,26,27,28,29,30,31,32,32,32,33,34,34,35,36,37,38,38,39,40,41,41,42,43,44,45,46,47,48,49,50,50,51,52,53,54,55,56,57,58,59,60,61];
succ = [2,3,4,13,6,8,25,5,7,10,33,35,16,31,36,12,15,9,11,24,19,27,54,18,28,14,26,31,17,22,39,38,23,20,32,61,36,37,21,30,51,20,45,41,34,31,44,46,27,47,41,29,48,59,57,46,59,49,42,43,40,52,45,53,55,40,58,56,60,51,50,46,55,54,51,50,53,56,59,61,54,56,52,53,58,55,60,61,58,60,62,62,62];

nUnrels = 1334;
unpred = [2,2,2,2,2,2,2,2,2,2,2,2,2,2,2,2,2,2,2,2,2,3,3,3,3,3,3,3,3,3,3,3,3,3,3,3,3,3,3,3,3,3,3,4,4,4,4,4,4,4,4,4,4,4,4,4,4,4,4,4,4,4,4,4,4,4,4,4,4,4,4,4,4,4,4,4,4,4,4,4,4,4,4,4,4,4,4,4,4,4,4,4,4,5,5,5,5,5,5,5,5,5,5,5,5,5,5,5,5,5,5,5,5,5,5,5,5,5,5,5,5,5,5,5,5,5,5,5,5,5,5,5,5,5,5,5,5,5,5,6,6,6,6,6,6,6,6,6,6,6,6,6,6,6,6,6,6,6,6,6,6,6,6,6,6,6,6,6,6,6,6,6,6,6,6,6,6,6,6,6,6,6,6,6,6,6,6,6,6,6,6,6,7,7,7,7,7,7,7,7,7,7,7,7,7,7,7,7,7,7,7,7,7,7,7,7,7,7,7,7,7,7,8,8,8,8,8,8,8,8,8,8,8,8,8,8,8,8,8,8,8,8,8,8,9,9,9,9,9,9,9,9,9,9,9,9,9,9,9,9,9,9,9,9,9,9,9,9,9,9,9,9,9,9,9,9,9,9,9,9,9,9,9,10,10,10,10,10,10,10,10,10,10,10,10,10,10,10,10,10,10,10,10,10,10,10,10,10,10,10,10,10,10,10,10,10,10,10,10,10,10,10,10,10,10,10,10,10,11,11,11,11,11,11,11,11,11,11,11,11,11,11,11,11,11,11,11,11,11,11,11,11,11,11,12,12,12,12,12,12,12,12,12,12,12,12,12,12,12,12,12,12,12,12,12,12,12,12,12,12,12,12,12,12,12,12,12,12,13,13,13,13,13,13,13,13,13,13,13,13,13,13,13,13,13,13,13,13,13,13,13,13,13,13,13,13,13,13,13,13,13,13,14,14,14,14,14,14,14,14,14,14,14,14,14,14,14,14,14,14,14,14,14,14,14,14,14,14,14,14,14,14,14,14,14,14,14,14,14,14,15,15,15,15,15,15,15,15,15,15,15,15,15,15,15,15,15,15,15,15,15,15,15,15,15,15,15,15,15,15,15,15,15,15,16,16,16,16,16,16,16,16,16,16,16,16,16,16,16,16,16,16,16,16,16,16,16,16,16,16,16,16,16,16,16,16,16,16,16,16,16,16,16,16,16,16,16,16,17,17,17,17,17,17,17,17,17,17,17,17,17,17,17,17,17,17,17,17,17,17,17,17,17,17,17,17,17,17,17,17,17,17,17,17,17,17,17,17,17,18,18,18,18,18,18,18,18,18,18,18,18,18,18,18,18,18,18,18,18,18,18,18,18,18,18,18,19,19,19,19,19,19,19,19,19,19,19,19,19,19,19,19,19,19,19,19,19,19,19,19,19,19,19,19,19,19,20,20,20,20,20,20,20,20,20,20,20,20,20,20,20,20,20,20,20,20,20,20,20,20,20,20,20,20,20,20,20,20,20,20,21,21,21,21,21,21,21,21,21,21,21,21,21,21,21,21,21,21,21,21,21,21,21,21,21,21,21,21,21,21,22,22,22,22,22,22,22,22,22,22,22,22,22,22,22,22,22,22,22,22,22,22,22,22,22,22,22,22,23,23,23,23,23,23,23,23,23,23,23,23,23,23,23,23,23,23,23,23,23,23,23,23,23,23,23,23,23,23,23,23,23,23,23,23,24,24,24,24,24,24,24,24,24,24,24,24,24,24,24,24,24,24,24,24,24,24,24,24,24,24,24,24,24,24,25,25,25,25,25,25,25,25,25,25,25,25,25,25,25,25,25,25,25,25,25,25,25,25,25,25,25,25,25,25,26,26,26,26,26,26,26,26,26,26,26,26,26,26,26,26,26,26,26,26,26,26,26,27,27,27,27,27,27,27,27,27,27,27,27,27,27,27,27,27,27,27,27,27,27,27,27,27,27,27,27,27,27,27,27,28,28,28,28,28,28,28,28,28,28,28,28,28,28,28,28,28,28,28,28,28,28,28,28,28,28,28,28,28,28,28,28,29,29,29,29,29,29,29,29,29,29,29,29,29,29,29,29,29,29,29,29,29,29,29,29,29,29,29,29,29,30,30,30,30,30,30,30,30,30,30,30,30,30,30,30,30,30,30,30,30,30,30,30,30,30,30,30,31,31,31,31,31,31,31,31,31,31,31,31,31,31,31,31,31,31,31,31,31,31,31,31,31,31,31,31,31,32,32,32,32,32,32,32,32,32,32,32,32,32,32,32,32,32,32,32,32,32,32,33,33,33,33,33,33,33,33,33,33,33,33,33,33,33,33,33,33,33,33,33,33,34,34,34,34,34,34,34,34,34,34,34,34,34,34,34,34,34,35,35,35,35,35,35,35,35,35,35,35,35,35,35,35,35,35,35,35,35,35,35,35,36,36,36,36,36,36,36,36,36,36,36,36,36,36,36,36,36,36,36,36,36,36,36,37,37,37,37,37,37,37,37,37,37,37,37,37,37,37,37,37,37,38,38,38,38,38,38,38,38,38,38,38,38,38,38,38,38,38,38,38,39,39,39,39,39,39,39,39,39,39,39,39,39,39,39,39,39,39,39,39,39,40,40,40,40,40,40,40,40,40,40,40,40,40,40,40,40,41,41,41,41,41,41,41,41,41,41,41,42,42,42,42,42,42,42,42,42,42,42,42,42,42,42,42,42,43,43,43,43,43,43,43,43,43,43,43,43,43,43,43,44,44,44,44,44,44,44,44,44,44,44,44,45,45,45,45,45,45,45,45,45,45,46,46,46,46,46,46,46,46,46,46,46,46,47,47,47,47,47,47,47,47,47,47,47,47,48,48,48,48,48,48,48,48,48,48,48,48,49,49,49,49,49,49,49,49,49,49,49,50,50,50,50,50,50,51,51,51,51,51,51,52,52,52,52,52,52,53,53,53,53,53,53,54,54,54,54,54,55,55,55,55,55,56,56,56,56,57,57,58,58,59,59,60];
unsucc = [3,4,5,7,10,12,15,16,25,26,27,29,32,33,35,42,43,47,48,49,57,4,6,8,9,10,11,13,14,17,18,19,21,22,23,24,28,30,34,37,38,39,44,5,6,7,8,9,11,12,13,14,15,16,17,18,19,20,21,22,23,24,25,26,28,29,30,31,32,33,34,35,36,37,38,39,40,41,42,43,44,45,46,47,49,50,51,52,53,56,57,58,61,6,7,8,9,10,11,12,13,14,15,17,18,19,20,21,22,23,24,25,26,27,28,29,30,31,32,34,36,37,38,39,41,42,43,44,45,46,47,48,49,50,54,55,56,57,59,7,8,9,10,11,12,13,14,15,16,17,18,19,20,21,22,23,24,25,26,27,28,29,30,32,33,34,35,36,37,38,39,40,41,42,43,44,45,46,47,48,49,50,51,52,53,54,55,56,57,58,60,61,8,9,10,11,13,14,16,17,18,19,21,22,23,24,25,27,28,30,33,34,35,37,38,39,40,44,47,48,51,52,10,12,13,15,16,17,22,25,26,27,29,32,33,34,35,36,42,43,47,48,49,57,10,11,12,13,14,15,16,17,18,21,22,23,24,25,26,27,28,29,30,31,32,33,34,35,36,37,38,39,40,41,42,43,44,46,47,48,49,57,59,11,12,13,14,15,16,17,18,19,20,21,22,23,24,25,26,28,29,30,31,32,33,34,35,36,37,38,39,40,41,42,43,44,45,46,47,49,50,51,52,53,56,57,58,61,12,13,15,16,17,19,20,22,24,25,26,27,29,32,33,34,35,36,42,43,44,45,47,48,49,57,13,14,15,16,17,18,19,20,21,22,23,24,25,27,28,30,32,33,34,35,36,37,38,39,40,42,43,44,45,47,48,49,51,52,14,15,16,18,19,20,21,23,24,25,26,27,28,29,30,31,32,33,35,37,38,39,40,41,42,43,44,46,47,48,49,51,57,59,15,16,17,18,19,20,21,22,24,25,26,27,28,29,30,32,33,34,35,36,37,40,41,42,43,44,45,46,47,48,49,50,51,52,53,54,55,57,16,17,18,19,21,22,23,24,25,26,27,28,29,30,31,33,34,35,36,37,38,39,40,41,44,46,47,48,51,52,53,57,58,59,17,18,19,20,21,22,23,24,25,26,27,28,29,30,31,32,33,34,35,36,37,38,39,40,41,42,43,44,45,46,47,48,49,50,51,52,53,54,55,56,57,58,59,60,18,19,20,21,22,23,24,25,26,27,28,29,30,31,32,33,34,35,37,38,39,40,41,42,43,44,45,46,47,48,49,50,51,52,53,54,56,57,58,59,61,19,20,22,23,24,25,26,27,28,29,31,32,33,34,35,36,38,39,42,43,44,45,47,48,49,57,59,21,22,23,24,25,26,27,28,29,30,31,32,33,34,35,36,37,38,39,40,41,42,43,44,46,47,48,49,57,59,21,22,23,24,25,26,27,28,29,30,31,32,33,34,35,36,37,38,39,40,41,42,43,44,46,47,48,49,51,52,53,57,58,59,22,23,24,25,26,27,28,29,30,31,32,33,34,35,36,37,38,39,40,42,43,44,45,47,48,49,51,52,57,59,23,24,25,26,27,28,29,30,31,32,33,35,36,37,38,39,40,41,42,43,44,46,47,48,49,51,57,59,24,25,26,27,28,29,30,32,33,34,35,36,37,38,39,40,41,42,43,44,45,46,47,48,49,50,51,52,53,54,55,56,57,58,60,61,25,26,27,28,29,30,31,32,33,34,35,36,37,38,39,40,41,42,43,45,47,48,49,50,54,55,56,57,59,61,26,28,29,30,31,32,33,34,35,36,37,38,39,40,41,42,43,44,45,46,49,50,51,52,53,54,55,57,58,60,27,28,30,31,32,33,34,35,36,37,38,39,40,42,43,44,45,47,48,49,51,52,59,28,29,30,31,32,33,34,35,36,37,38,39,40,41,42,43,44,45,46,47,49,50,51,52,53,54,55,56,57,58,60,61,29,30,31,32,33,34,35,36,37,38,39,40,41,42,43,44,45,46,47,48,49,50,51,52,53,54,55,56,57,58,60,61,30,31,32,33,34,35,36,37,38,39,40,41,42,43,44,45,46,47,48,49,50,51,52,53,54,55,56,59,61,31,32,33,34,35,36,37,38,39,40,41,42,43,44,45,47,48,49,50,51,52,54,55,56,57,59,61,32,33,34,35,36,37,38,39,40,41,42,43,44,45,46,47,48,49,50,51,52,53,54,55,56,57,58,60,61,33,34,35,36,37,38,39,40,41,44,45,46,47,48,50,51,52,53,56,57,58,59,34,35,36,37,38,39,41,42,43,44,45,46,47,48,49,50,54,55,56,57,59,61,35,36,37,38,39,40,41,42,43,44,46,47,48,49,51,57,59,36,37,38,39,40,41,42,43,44,45,46,47,48,49,50,51,52,54,55,56,57,59,61,37,38,39,40,41,42,43,44,45,46,47,48,49,50,51,52,53,54,56,57,58,59,61,38,39,41,42,43,44,45,46,47,48,49,50,54,55,56,57,59,61,39,40,41,42,43,44,45,46,47,48,49,50,51,52,53,54,55,57,59,40,41,42,43,44,45,46,47,48,49,50,51,52,53,54,55,56,57,58,59,61,41,42,43,44,45,46,47,48,49,50,54,55,56,57,59,61,42,43,44,45,47,48,49,51,52,57,59,43,44,45,46,47,48,49,50,51,52,53,54,56,57,58,59,61,44,45,46,47,48,49,50,51,52,53,56,57,58,59,61,45,46,47,48,49,50,54,55,56,57,59,61,46,47,48,49,51,52,53,57,58,59,47,48,49,50,51,52,54,55,56,57,59,61,48,49,50,51,52,53,54,55,57,58,59,60,49,50,51,52,53,54,55,56,57,58,60,61,50,51,52,53,54,55,56,57,58,59,60,51,52,53,57,58,59,54,55,56,57,59,61,54,55,56,57,59,61,54,55,56,57,59,61,56,57,58,59,61,56,57,58,59,61,57,58,59,60,59,61,59,61,60,61,61];

USEFUL_RES = [{},
	{1,2,3,4,5,6,7,8,9,10,11,12,13,14,15},
	{5,6,8,9,11,12,13,14,15},
	{1,2,3,4,5,6,7,8,9,10,11,12,13,14,15},
	{1,2,3,4,5,6,7,8,9,10,11,12,13,14,15},
	{1,2,3,4,5,6,7,8,9,10,11,12,13,14,15},
	{1,2,3,4,5,6,7,8,9,10,12,13,14,15},
	{1,2,3,4,5,6,7,8,9,10,11,12,13,14,15},
	{1,2,3,4,5,6,7,8,9,10,11,12,13,14,15},
	{1,2,3,4,5,6,7,8,9,10,11,12,13,14,15},
	{1,2,3,4,5,6,7,8,9,10,11,12,13,14,15},
	{1,2,3,5,6,7,8,9,10,11,12,13,14,15},
	{1,2,4,5,6,7,8,9,10,11,12,13,14,15},
	{1,2,3,5,6,7,8,9,10,11,12,13,14,15},
	{1,2,3,4,5,6,7,8,9,10,11,12,13,14,15},
	{1,2,3,4,5,6,7,8,9,10,11,12,13,14,15},
	{3,4,5,6,7,8,9,10,11,12,14,15},
	{1,2,3,4,5,6,7,8,9,10,11,12,13,14,15},
	{1,2,3,4,5,6,7,8,9,10,12,13,14,15},
	{1,2,3,4,5,6,7,8,9,10,11,12,13,14,15},
	{1,2,4,5,6,7,8,9,10,11,12,13,14,15},
	{1,2,3,4,5,6,7,8,9,10,11,12,13,14,15},
	{1,2,3,4,5,6,7,8,9,10,11,12,13,14,15},
	{2,3,4,6,7,8,9,10,11,12,13,14,15},
	{1,2,3,4,5,6,7,8,9,10,11,12,13,14},
	{1,2,3,4,5,6,7,8,9,10,11,12,13,14,15},
	{1,2,3,4,5,6,7,8,9,10,11,12,13,14,15},
	{1,2,3,4,5,6,7,8,9,10,11,12,13,14,15},
	{1,2,3,4,5,6,7,8,9,10,11,12,13,14,15},
	{1,2,3,4,5,6,7,8,9,10,11,12,13,14,15},
	{1,2,3,4,5,6,7,8,9,10,11,12,13,14,15},
	{1,2,3,4,5,6,7,8,9,10,11,12,13,14,15},
	{1,2,3,4,5,6,7,8,9,10,11,12,13,14,15},
	{1,2,3,4,5,6,7,8,9,10,11,12,13,14,15},
	{1,2,3,4,5,6,7,8,9,10,11,12,13,14,15},
	{1,2,3,4,5,6,7,8,9,10,11,12,13,14,15},
	{1,3,4,5,6,7,8,9,10,11,12,13,14,15},
	{1,2,3,4,5,6,7,8,9,10,11,12,13,14,15},
	{1,2,3,4,5,6,7,8,9,10,11,12,13,14,15},
	{1,2,3,4,5,6,7,8,9,10,11,12,13,14,15},
	{5,6,8,9,11,12,13,14,15},
	{1,2,3,4,5,6,7,8,9,10,11,12,13,14,15},
	{1,2,3,4,5,6,7,8,9,10,11,12,13,14,15},
	{1,3,4,5,6,7,8,9,10,11,12,13,14,15},
	{1,2,3,4,5,6,7,8,9,10,11,12,13,14,15},
	{1,2,3,4,5,6,7,8,9,10,11,12,13,14,15},
	{1,2,3,4,5,6,7,8,9,10,11,12,13,14,15},
	{1,2,3,4,5,6,7,8,9,10,11,12,13,14},
	{1,2,3,4,5,6,7,8,9,10,11,12,13,14,15},
	{1,2,3,4,5,6,7,8,9,10,11,12,13,14,15},
	{1,2,3,4,5,6,7,8,9,10,11,12,13,14,15},
	{1,2,3,4,5,6,7,8,9,10,11,12,13,14,15},
	{1,2,3,4,5,6,7,8,9,10,11,12,13,14,15},
	{1,2,3,4,5,6,7,8,9,10,11,12,13,14,15},
	{1,2,3,4,5,6,7,8,9,10,11,12,13,14,15},
	{3,4,5,6,7,8,9,10,11,12,13,14,15},
	{1,2,3,4,5,6,7,8,9,10,11,12,13,14,15},
	{1,2,3,4,5,6,7,8,9,10,11,12,13,14,15},
	{1,2,3,4,5,6,7,8,9,10,11,12,13,14,15},
	{1,2,3,4,5,6,7,8,9,10,11,12,13,14,15},
	{1,2,3,4,5,6,7,8,9,10,11,12,13,14,15},
	{}];

POTENTIAL_ACT = [{2,4,5,6,7,8,9,10,11,12,13,14,15,16,18,19,20,21,22,23,25,26,27,28,29,30,31,32,33,34,35,36,37,38,39,40,42,43,44,45,46,47,48,49,50,51,52,53,54,55,57,58,59,60,61},
	{2,4,5,6,7,8,9,10,11,12,13,14,15,16,18,19,20,21,22,23,24,25,26,27,28,29,30,31,32,33,34,35,36,38,39,40,42,43,45,46,47,48,49,50,51,52,53,54,55,57,58,59,60,61},
	{2,4,5,6,7,8,9,10,11,12,14,15,16,17,18,19,20,22,23,24,25,26,27,28,29,30,31,32,33,34,35,36,37,38,39,40,42,43,44,45,46,47,48,49,50,51,52,53,54,55,56,57,58,59,60,61},
	{2,4,5,6,7,8,9,10,11,13,15,16,17,18,19,20,21,22,23,24,25,26,27,28,29,30,31,32,33,34,35,36,37,38,39,40,42,43,44,45,46,47,48,49,50,51,52,53,54,55,56,57,58,59,60,61},
	{2,3,4,5,6,7,8,9,10,11,12,13,14,15,16,17,18,19,20,21,22,23,25,26,27,28,29,30,31,32,33,34,35,36,37,38,39,40,41,42,43,44,45,46,47,48,49,50,51,52,53,54,55,56,57,58,59,60,61},
	{2,3,4,5,6,7,8,9,10,11,12,13,14,15,16,17,18,19,20,21,22,23,24,25,26,27,28,29,30,31,32,33,34,35,36,37,38,39,40,41,42,43,44,45,46,47,48,49,50,51,52,53,54,55,56,57,58,59,60,61},
	{2,4,5,6,7,8,9,10,11,12,13,14,15,16,17,18,19,20,21,22,23,24,25,26,27,28,29,30,31,32,33,34,35,36,37,38,39,40,42,43,44,45,46,47,48,49,50,51,52,53,54,55,56,57,58,59,60,61},
	{2,3,4,5,6,7,8,9,10,11,12,13,14,15,16,17,18,19,20,21,22,23,24,25,26,27,28,29,30,31,32,33,34,35,36,37,38,39,40,41,42,43,44,45,46,47,48,49,50,51,52,53,54,55,56,57,58,59,60,61},
	{2,3,4,5,6,7,8,9,10,11,12,13,14,15,16,17,18,19,20,21,22,23,24,25,26,27,28,29,30,31,32,33,34,35,36,37,38,39,40,41,42,43,44,45,46,47,48,49,50,51,52,53,54,55,56,57,58,59,60,61},
	{2,4,5,6,7,8,9,10,11,12,13,14,15,16,17,18,19,20,21,22,23,24,25,26,27,28,29,30,31,32,33,34,35,36,37,38,39,40,42,43,44,45,46,47,48,49,50,51,52,53,54,55,56,57,58,59,60,61},
	{2,3,4,5,6,8,9,10,11,12,13,14,15,16,17,18,20,21,22,23,24,25,26,27,28,29,30,31,32,33,34,35,36,37,38,39,40,41,42,43,44,45,46,47,48,49,50,51,52,53,54,55,56,57,58,59,60,61},
	{2,3,4,5,6,7,8,9,10,11,12,13,14,15,16,17,18,19,20,21,22,23,24,25,26,27,28,29,30,31,32,33,34,35,36,37,38,39,40,41,42,43,44,45,46,47,48,49,50,51,52,53,54,55,56,57,58,59,60,61},
	{2,3,4,5,6,7,8,9,10,11,12,13,14,15,16,18,19,20,21,22,23,24,25,26,27,28,29,30,31,32,33,34,35,36,37,38,39,40,41,42,43,44,45,46,47,48,49,50,51,52,53,54,55,56,57,58,59,60,61},
	{2,3,4,5,6,7,8,9,10,11,12,13,14,15,16,17,18,19,20,21,22,23,24,25,26,27,28,29,30,31,32,33,34,35,36,37,38,39,40,41,42,43,44,45,46,47,48,49,50,51,52,53,54,55,56,57,58,59,60,61},
	{2,3,4,5,6,7,8,9,10,11,12,13,14,15,16,17,18,19,20,21,22,23,24,26,27,28,29,30,31,32,33,34,35,36,37,38,39,40,41,42,43,44,45,46,47,49,50,51,52,53,54,55,56,57,58,59,60,61}];
